NAME : XML100_3335_17
DIMENSION : 101
NB_CLUSTERS : 4
CLUSTERING_ALG : KMedoids
CLUSTERING_PARAMS : k(3)
CLUSTERS
1 0
2 3 5 7 9 13 18 23 28 30 31 32 36 39 40 42 45 52 53 57 58 59 62 65 69 72 73 77 78 81 84 85 86 90 93 94 95 99
3 8 10 16 19 22 26 27 33 37 41 49 50 55 76 79 80 88 96
4 1 2 4 6 11 12 14 15 17 20 21 24 25 29 34 35 38 43 44 46 47 48 51 54 56 60 61 63 64 66 67 68 70 71 74 75 82 83 87 89 91 92 97 98 100
EOF